c ren 1 -> 1
c ren 2 -> 2
c ren 3 -> 3
c ren 4 -> 4
c ren 5 -> 5
c ren 6 -> 6
c ren 7 -> 7
c ren 8 -> 8
c ren 9 -> 9
c ren 10 -> 10
c ren 17 -> 11
c ren 18 -> 12
c ren 19 -> 13
c ren 20 -> 14
c ren 21 -> 15
c ren 22 -> 16
c ren 23 -> 17
c ren 28 -> 18
c ren 44 -> 19
c ren 50 -> 20
p cnf 20 68
a 1 2 3 4 5 6 7 8 9 10 11 12 13 14 0
d 15 3 4 0
d 16 13 14 0
d 17 11 12 0
e 18 19 20 0
-7 -11 -18 0
7 8 -11 18 0
5 6 -8 -15 -17 19 -20 0
7 8 11 -18 0
5 6 -7 -15 -17 19 -20 0
-8 11 18 0
1 2 5 6 7 8 -9 -15 19 -20 0
-1 -8 12 13 -18 -19 0
1 2 3 4 -9 15 19 -20 0
-7 9 12 13 -18 -19 0
-2 -8 12 13 -18 -19 0
-7 11 18 0
-1 -5 12 13 -18 -19 0
1 2 -6 -9 -12 13 -18 -19 0
1 2 5 6 7 8 -9 -12 -13 -18 -19 0
-1 -7 12 13 -18 -19 0
1 2 -5 -9 -12 13 -18 -19 0
-1 5 6 -15 -17 19 -20 0
-2 5 6 -15 -17 19 -20 0
1 2 3 4 -8 15 19 -20 0
-2 -5 12 13 -18 -19 0
1 2 -3 -8 -15 19 -20 0
18 19 0
-2 5 6 7 8 12 -13 -18 -19 0
1 2 3 4 5 6 7 8 10 19 -20 0
-6 -16 19 -20 0
-7 -16 19 -20 0
-8 -16 19 -20 0
-1 5 6 7 8 12 -13 -18 -19 0
-1 -6 12 13 -18 -19 0
-9 14 20 0
-2 14 20 0
-1 -16 19 -20 0
1 2 -4 -6 -15 19 -20 0
10 14 20 0
1 2 -4 -8 -15 19 -20 0
5 6 9 -15 -17 19 -20 0
1 2 3 4 -6 15 19 -20 0
-2 -16 19 -20 0
10 -16 19 -20 0
5 6 7 8 9 12 -13 -18 -19 0
1 2 5 6 7 8 -10 -15 19 -20 0
-5 9 12 13 -18 -19 0
-6 9 12 13 -18 -19 0
-3 -16 19 -20 0
14 15 20 0
1 2 -4 -5 -15 19 -20 0
1 2 3 4 -7 15 19 -20 0
1 2 -4 -7 -15 19 -20 0
1 2 -8 -9 -12 13 -18 -19 0
-8 -11 -18 0
-2 -7 12 13 -18 -19 0
-1 14 20 0
1 2 -3 -7 -15 19 -20 0
1 2 9 -10 -14 -15 20 0
1 2 3 4 -5 15 19 -20 0
-8 9 12 13 -18 -19 0
1 2 -3 -5 -15 19 -20 0
1 2 -7 -9 -12 13 -18 -19 0
-4 -16 19 -20 0
1 2 3 4 5 6 7 8 9 16 19 -20 0
-5 -16 19 -20 0
-4 5 6 -15 -17 19 -20 0
-2 -6 12 13 -18 -19 0
-9 -16 19 -20 0
1 2 3 4 5 6 7 8 -9 17 19 -20 0
-3 5 6 -15 -17 19 -20 0
1 2 -3 -6 -15 19 -20 0
